db/data/7764232103315134342050984972098429487.z3.out
solvers/z3/run.sh: line 2: 124738 Killed                  z3 -smt2 $1
-------------------
76.511850128
